sifdecoder -A pc64.lnx.gfo -st   NCVXQP2

 Problem name: NCVXQP2

 Double precision version will be formed

 The objective function uses 10000 nonlinear groups
 
 There are 5000 linear equality constraints
 
 There are 10000 variables bounded from below and above 
 
 
 File successfully decoded
 CUTEST: tools (double precision version) compiled successfully
 CUTEst: ipopt (double precision version) compiled successfully

******************************************************************************
This program contains Ipopt, a library for large-scale nonlinear optimization.
 Ipopt is released as open source code under the Eclipse Public License (EPL).
         For more information visit http://projects.coin-or.org/Ipopt
******************************************************************************

This is Ipopt version trunk, running with linear solver ma57.

Number of nonzeros in equality constraint Jacobian...:    14998
Number of nonzeros in inequality constraint Jacobian.:        0
Number of nonzeros in Lagrangian Hessian.............:    39984

Reallocating memory for MA57: lfact (15980260)
Reallocating memory for MA57: lfact (19584355)
Total number of variables............................:    10000
                     variables with only lower bounds:        0
                variables with lower and upper bounds:    10000
                     variables with only upper bounds:        0
Total number of equality constraints.................:     5000
Total number of inequality constraints...............:        0
        inequality constraints with only lower bounds:        0
   inequality constraints with lower and upper bounds:        0
        inequality constraints with only upper bounds:        0

iter    objective    inf_pr   inf_du lg(mu)  ||d||  lg(rg) alpha_du alpha_pr  ls
   0 -2.8125000e+07 3.00e+00 1.00e+02  -1.0 0.00e+00    -  0.00e+00 0.00e+00   0
   1 -6.8980944e+07 1.33e-15 7.35e+03  -1.0 7.35e-01   4.0 3.83e-01 1.00e+00f  1
   2 -7.0975231e+07 1.78e-15 1.32e+02  -1.0 3.96e-02   3.5 1.00e+00 1.00e+00f  1
   3 -7.8013848e+07 1.78e-15 1.56e+02  -1.0 1.41e-01   3.0 1.00e+00 1.00e+00f  1
   4 -1.1712208e+08 1.78e-15 2.92e+02  -1.0 7.90e-01   2.6 7.50e-01 1.00e+00f  1
   5 -1.3834852e+08 1.78e-15 3.54e+02  -1.0 3.59e-01   3.0 1.00e+00 1.00e+00f  1
   6 -1.7068717e+08 1.78e-15 4.56e+02  -1.0 2.22e+00   2.5 6.70e-01 2.71e-01f  1
   7 -1.7149089e+08 1.78e-15 4.59e+02  -1.0 6.45e-01   2.9 1.00e+00 1.98e-02f  1
   8 -1.8290789e+08 1.78e-15 4.95e+02  -1.0 3.65e+00   2.5 6.38e-01 5.95e-02f  1
   9 -1.9582107e+08 1.78e-15 5.27e+02  -1.0 7.99e-01   2.9 7.73e-01 2.47e-01f  1
iter    objective    inf_pr   inf_du lg(mu)  ||d||  lg(rg) alpha_du alpha_pr  ls
  10 -2.2053085e+08 1.78e-15 6.00e+02  -1.0 5.36e+00   2.4 4.16e-01 8.44e-02f  1
  11 -2.3766782e+08 1.78e-15 6.40e+02  -1.0 1.13e+00   2.8 9.78e-01 2.22e-01f  1
  12 -2.7590719e+08 1.78e-15 7.56e+02  -1.0 9.30e+00   2.4 3.47e-01 7.69e-02f  1
  13 -3.0096276e+08 1.78e-15 8.12e+02  -1.0 1.66e+00   2.8 9.86e-01 2.10e-01f  1
  14 -3.6704232e+08 1.78e-15 1.02e+03  -1.0 1.89e+01   2.3 2.16e-01 6.85e-02f  1
  15 -3.8851272e+08 1.78e-15 1.07e+03  -1.0 2.65e+00   2.7 1.00e+00 1.08e-01f  1
  16 -4.4227370e+08 1.78e-15 1.29e+03  -1.0 5.26e+01   2.3 1.06e-01 2.55e-02f  1
  17 -4.8981646e+08 1.78e-15 1.39e+03  -1.0 3.96e+00   2.7 9.89e-01 1.60e-01f  1
  18 -5.0553216e+08 2.22e-15 1.68e+03  -1.0 1.31e+03   2.2 5.62e-03 1.36e-03f  1
  19 -5.0691425e+08 2.22e-15 1.61e+03  -1.0 5.86e+00   2.6 9.87e-01 3.46e-03f  1
iter    objective    inf_pr   inf_du lg(mu)  ||d||  lg(rg) alpha_du alpha_pr  ls
  20 -5.2666368e+08 2.22e-15 1.60e+03  -1.0 1.53e+00   3.1 1.00e+00 1.69e-01f  1
  21 -5.5325061e+08 2.22e-15 1.47e+03  -1.0 5.89e+00   2.6 7.00e-01 5.37e-02f  1
  22 -5.7676642e+08 2.22e-15 1.50e+03  -1.0 1.63e+00   3.0 1.00e+00 1.61e-01f  1
  23 -6.4867618e+08 1.78e-15 1.57e+03  -1.0 7.65e+00   2.5 5.89e-01 1.07e-01f  1
  24 -6.5295677e+08 2.22e-15 1.54e+03  -1.0 2.03e+00   3.0 1.00e+00 2.17e-02f  1
  25 -7.0527225e+08 2.22e-15 1.58e+03  -1.0 1.01e+01   2.5 4.50e-01 5.64e-02f  1
  26 -7.1855088e+08 2.22e-15 1.53e+03  -1.0 2.32e+00   2.9 1.00e+00 5.41e-02f  1
  27 -7.7366093e+08 2.22e-15 1.56e+03  -1.0 1.25e+01   2.4 2.89e-01 4.36e-02f  1
  28 -7.9379138e+08 2.22e-15 1.52e+03  -1.0 2.64e+00   2.9 1.00e+00 6.51e-02f  1
  29 -8.5163284e+08 2.66e-15 1.53e+03  -1.0 1.60e+01   2.4 1.97e-01 3.34e-02f  1
iter    objective    inf_pr   inf_du lg(mu)  ||d||  lg(rg) alpha_du alpha_pr  ls
  30 -8.8442019e+08 2.22e-15 1.50e+03  -1.0 2.99e+00   2.8 1.00e+00 8.47e-02f  1
  31 -9.4872046e+08 2.66e-15 1.51e+03  -1.0 2.15e+01   2.3 1.37e-01 2.57e-02f  1
  32 -9.7392137e+08 2.66e-15 1.46e+03  -1.0 3.39e+00   2.8 1.00e+00 5.18e-02f  1
  33 -1.0523545e+09 2.22e-15 1.50e+03  -1.0 3.09e+01   2.3 6.22e-02 2.19e-02f  1
